c Sudoku solution
p cnf 729 0
135 0
169 0
181 0
229 0
237 0
252 0
321 0
366 0
394 0
415 0
547 0
554 0
596 0
623 0
668 0
687 0
427 0
732 0
848 0
863 0
872 0
926 0
944 0
962 0
143 0
345 0
453 0
241 0
264 0
461 0
565 0
767 0
983 0
713 0
333 0
573 0
293 0
991 0
751 0
671 0
695 0
312 0
192 0
522 0
642 0
482 0
474 0
897 0
917 0
799 0
746 0
886 0
784 0
449 0
656 0
436 0
498 0
589 0
379 0
177 0
388 0
116 0
124 0
218 0
158 0
357 0
511 0
538 0
831 0
825 0
814 0
728 0
939 0
775 0
978 0
859 0
955 0
619 0
634 0
276 0
285 0
